14
0 46 39 34 59 18 53 25 61 8 26 55 43 28
46 0 65 87 48 58 20 64 63 75 73 47 67 47
39 65 0 39 78 53 65 26 43 61 8 53 47 51
34 87 39 0 55 23 11 80 52 73 80 49 19 46
59 48 78 55 0 51 26 41 54 33 25 46 41 39
18 58 53 23 51 0 42 31 43 46 48 37 52 89
53 20 65 11 26 42 0 34 55 74 63 26 71 53
25 64 26 80 41 31 34 0 55 56 48 77 37 59
61 63 43 52 54 43 55 55 0 56 53 43 47 60
8 75 61 73 33 46 74 56 56 0 11 55 75 66
26 73 8 80 25 48 63 48 53 11 0 77 12 18
55 47 53 49 46 37 26 77 43 55 77 0 17 38
43 67 47 19 41 52 71 37 47 75 12 17 0 34
28 47 51 46 39 89 53 59 60 66 18 38 34 0
